; Compiling Defs
(set-option :print-success true)
(set-option :produce-models true)
(set-option :interactive-mode true)
(set-option :produce-assertions true)
(set-option :produce-models true)
(set-option :produce-assignments true)
(set-option :produce-proofs true)
(set-option :produce-unsat-assumptions true)
(set-option :produce-unsat-cores true)
(declare-const one Int)
(assert
   (= one 1))
(declare-const
   base
   (Array String Int))
(declare-const
   enc
   (Array String Int))
(declare-const
   exp
   (Array String Int))
(assert
   (= enc base))
(echo "solver-start-cycle-1")
(echo "solver-finish-cycle-1")
(echo "solver-start-cycle-2")

; GIVENS (GHC style)
; []

; WANTEDS (GHC style)
; [WD] hole{co_a5pV} {1}:: One
;                          ~# (Base "byte" /: Base "byte") (CNonCanonical)

; GIVENS (Thoralf style)
; []

; WANTEDS (Thoralf style)
; (One [],/: [Base ["byte"],Base ["byte"]])

(echo "givens-start-cycle-2")
; GIVENS (conversions)
;      [WD] hole{co_a5pV} {1}:: One
;                               ~# (Base "byte" /: Base "byte") (CNonCanonical)
;  =>  (=
;    (
;      (as
;         const
;         (Array String Int))
;      0)
;    (
;      (_
;         map
;         (-
;            (Int Int)
;            Int))
;      (store base "byte" one)
;      (store base "byte" one)))

; GIVENS (names)
(push 1)
; DECS1 (seen) 
; DECS1 (unseen) 
(check-sat)
; sat
(echo "givens-finish-cycle-2")
(echo "wanteds-start-cycle-2")
; WANTEDS (conversions)
;      [WD] hole{co_a5pV} {1}:: One
;                               ~# (Base "byte" /: Base "byte") (CNonCanonical)
;  =>  (=
;    (
;      (as
;         const
;         (Array String Int))
;      0)
;    (
;      (_
;         map
;         (-
;            (Int Int)
;            Int))
;      (store base "byte" one)
;      (store base "byte" one)))

; WANTEDS (names)
; DECS2 (seen) 
; DECS2 (unseen) 
(assert
   (!
      (not
         (=
            (
              (as
                 const
                 (Array String Int))
              0)
            (
              (_
                 map
                 (-
                    (Int Int)
                    Int))
              (store base "byte" one)
              (store base "byte" one))))
      :named
      wanted-2))
(check-sat)
; unsat
(echo "wanteds-finish-cycle-2")
(get-assertions)
; (
;   (= one 1)
;   (= enc base)
;   (!
;      (not
;         (=
;            (
;              (as
;                 const
;                 (Array String Int))
;              0)
;            (
;              (_
;                 map
;                 (-
;                    (Int Int)
;                    Int))
;              (store base "byte" one)
;              (store base "byte" one))))
;      :named
;      wanted-2))
(get-unsat-core)
; (wanted-2)
(pop 1)
(echo "solver-finish-cycle-2")
(exit)
